c File: instances/40_0.40_1.col
c
c Description: Random graph of size 40 vertices and P(0.39999999999999997) of edges between any two vertices.
p col 40 780
e 1 2
e 1 3
e 1 4
e 1 8
e 1 14
e 1 16
e 1 18
e 1 19
e 1 23
e 1 25
e 1 26
e 1 29
e 1 35
e 1 37
e 2 4
e 2 8
e 2 12
e 2 17
e 2 21
e 2 24
e 2 27
e 2 31
e 2 34
e 2 36
e 2 37
e 2 40
e 3 4
e 3 12
e 3 16
e 3 21
e 3 23
e 3 25
e 3 26
e 3 28
e 3 32
e 3 36
e 3 38
e 3 40
e 4 6
e 4 7
e 4 8
e 4 9
e 4 12
e 4 15
e 4 18
e 4 20
e 4 22
e 4 30
e 4 33
e 4 34
e 4 35
e 5 6
e 5 8
e 5 11
e 5 12
e 5 14
e 5 17
e 5 21
e 5 22
e 5 23
e 5 25
e 5 26
e 5 27
e 5 28
e 5 30
e 5 31
e 5 32
e 5 33
e 5 34
e 5 36
e 5 39
e 6 9
e 6 10
e 6 12
e 6 15
e 6 17
e 6 20
e 6 24
e 6 27
e 6 29
e 6 30
e 6 32
e 6 34
e 6 39
e 6 40
e 7 14
e 7 18
e 7 22
e 7 23
e 7 25
e 7 26
e 7 30
e 7 31
e 7 33
e 7 38
e 8 10
e 8 12
e 8 16
e 8 18
e 8 19
e 8 21
e 8 24
e 8 25
e 8 26
e 8 29
e 8 30
e 8 31
e 8 32
e 8 34
e 8 36
e 8 39
e 8 40
e 9 10
e 9 11
e 9 13
e 9 14
e 9 18
e 9 19
e 9 20
e 9 23
e 9 24
e 9 25
e 9 27
e 9 28
e 9 31
e 9 33
e 9 34
e 9 35
e 9 36
e 9 38
e 10 12
e 10 13
e 10 15
e 10 16
e 10 18
e 10 19
e 10 20
e 10 26
e 10 28
e 10 36
e 10 37
e 10 38
e 10 40
e 11 12
e 11 16
e 11 17
e 11 22
e 11 25
e 11 28
e 11 29
e 11 31
e 11 32
e 11 35
e 11 37
e 11 39
e 11 40
e 12 13
e 12 14
e 12 17
e 12 18
e 12 20
e 12 22
e 12 25
e 12 27
e 12 29
e 12 35
e 12 36
e 12 38
e 12 39
e 12 40
e 13 14
e 13 15
e 13 16
e 13 22
e 13 24
e 13 26
e 13 29
e 13 30
e 13 31
e 13 32
e 13 36
e 13 39
e 13 40
e 14 15
e 14 19
e 14 23
e 14 25
e 14 26
e 14 28
e 14 30
e 14 31
e 14 34
e 14 37
e 14 38
e 14 39
e 14 40
e 15 16
e 15 18
e 15 22
e 15 23
e 15 25
e 15 26
e 15 28
e 15 30
e 15 33
e 16 18
e 16 19
e 16 24
e 16 25
e 16 26
e 16 29
e 16 30
e 16 31
e 16 33
e 16 34
e 16 35
e 16 36
e 16 37
e 16 40
e 17 18
e 17 20
e 17 21
e 17 24
e 17 25
e 17 26
e 17 30
e 17 31
e 17 33
e 17 34
e 17 37
e 18 20
e 18 23
e 18 25
e 18 26
e 18 30
e 18 31
e 18 32
e 18 37
e 18 38
e 19 23
e 19 27
e 19 28
e 19 29
e 19 32
e 19 33
e 19 36
e 19 39
e 20 21
e 20 22
e 20 23
e 20 26
e 20 29
e 20 32
e 20 33
e 20 34
e 20 36
e 20 37
e 20 39
e 21 23
e 21 25
e 21 32
e 21 33
e 21 37
e 21 39
e 21 40
e 22 24
e 22 30
e 22 31
e 22 32
e 22 35
e 23 24
e 23 30
e 23 35
e 23 38
e 24 26
e 24 27
e 24 28
e 24 35
e 24 36
e 24 40
e 25 28
e 25 35
e 25 36
e 25 40
e 26 29
e 26 35
e 26 40
e 27 28
e 27 29
e 27 36
e 27 37
e 27 39
e 28 30
e 28 31
e 28 32
e 28 35
e 28 40
e 29 32
e 29 33
e 29 35
e 29 36
e 29 38
e 30 38
e 30 40
e 31 32
e 31 33
e 31 35
e 31 36
e 31 37
e 31 39
e 32 34
e 32 35
e 32 36
e 33 36
e 33 37
e 33 39
e 34 40
e 36 38
e 37 40
e 38 39